100
2
15,28,47,11,47,37,7,34,14,17,32,49,16,42,20,26,6,11,39,36,38,30,27,14,25,26,47,21,48,45
15,22,54,68,34,87,45,2,21,92,95,36,98,90,39,16,100,96,35,8,11,57,71,6,62,9,81,27,99,56
2,2,1,2,2,1,1,2,2,1,1,2,1,2,2,1,2,2,2,1,2,2,1,2,2,1,2,2,2,2
